c CNF file generated from BLIF2CNF script.
c Original BLIF file was miterN8.blif
p cnf 268 635
-1 0
2 0
-3 0
4 -7 0
5 -7 0
7 -4 -5  0
-7 6 0
-4 -8 0
-5 -8 0
8 4 5  0
-8 6 0
-6 7 8  0
-9 -12 0
12 9  0
-12 11 0
-10 -13 0
13 10  0
-13 11 0
-11 12 13  0
-11 -15 0
15 11  0
-15 14 0
-14 15  0
9 -17 0
-10 -17 0
17 -9 10  0
-17 16 0
-9 -18 0
10 -18 0
18 9 -10  0
-18 16 0
-16 17 18  0
19 -22 0
20 -22 0
22 -19 -20  0
-22 21 0
-21 22  0
19 -24 0
-20 -24 0
24 -19 20  0
-24 23 0
-19 -25 0
20 -25 0
25 19 -20  0
-25 23 0
-23 24 25  0
26 -29 0
27 -29 0
29 -26 -27  0
-29 28 0
-28 29  0
-23 -31 0
-21 -31 0
31 23 21  0
-31 30 0
-28 -32 0
-21 -32 0
32 28 21  0
-32 30 0
-30 31 32  0
33 -36 0
34 -36 0
36 -33 -34  0
-36 35 0
-35 36  0
33 -38 0
-34 -38 0
38 -33 34  0
-38 37 0
-33 -39 0
34 -39 0
39 33 -34  0
-39 37 0
-37 38 39  0
40 -43 0
41 -43 0
43 -40 -41  0
-43 42 0
-42 43  0
-37 -45 0
-35 -45 0
45 37 35  0
-45 44 0
-42 -46 0
-35 -46 0
46 42 35  0
-46 44 0
-44 45 46  0
19 -48 0
20 -48 0
48 -19 -20  0
-48 47 0
-19 -49 0
-20 -49 0
49 19 20  0
-49 47 0
-47 48 49  0
26 -51 0
27 -51 0
51 -26 -27  0
-51 50 0
-26 -52 0
-27 -52 0
52 26 27  0
-52 50 0
-50 51 52  0
50 -54 0
54 -50  0
-54 53 0
47 -55 0
55 -47  0
-55 53 0
-53 54 55  0
-53 -57 0
-44 -57 0
57 53 44  0
-57 56 0
-30 -58 0
58 30  0
-58 56 0
-56 57 58  0
-16 -60 0
-14 -60 0
60 16 14  0
-60 59 0
-56 -61 0
-14 -61 0
61 56 14  0
-61 59 0
-59 60 61  0
59 -63 0
-6 -63 0
63 -59 6  0
-63 62 0
-59 -64 0
6 -64 0
64 59 -6  0
-64 62 0
-62 63 64  0
4 -66 0
-5 -66 0
66 -4 5  0
-66 65 0
-4 -67 0
5 -67 0
67 4 -5  0
-67 65 0
-65 66 67  0
9 -69 0
10 -69 0
69 -9 -10  0
-69 68 0
-9 -70 0
-10 -70 0
70 9 10  0
-70 68 0
-68 69 70  0
-19 -72 0
72 19  0
-72 71 0
-20 -73 0
73 20  0
-73 71 0
-71 72 73  0
-71 -75 0
-68 -75 0
75 71 68  0
-75 74 0
-11 -76 0
76 11  0
-76 74 0
-74 75 76  0
-26 -78 0
78 26  0
-78 77 0
-27 -79 0
79 27  0
-79 77 0
-77 78 79  0
-33 -81 0
81 33  0
-81 80 0
-34 -82 0
82 34  0
-82 80 0
-80 81 82  0
-50 -84 0
-80 -84 0
84 50 80  0
-84 83 0
-77 -85 0
85 77  0
-85 83 0
-83 84 85  0
23 -87 0
16 -87 0
87 -23 -16  0
-87 86 0
-86 87  0
-83 -89 0
-74 -89 0
89 83 74  0
-89 88 0
-86 -90 0
-74 -90 0
90 86 74  0
-90 88 0
-88 89 90  0
88 -92 0
-65 -92 0
92 -88 65  0
-92 91 0
-88 -93 0
65 -93 0
93 88 -65  0
-93 91 0
-91 92 93  0
53 -95 0
95 -53  0
-95 94 0
44 -96 0
96 -44  0
-96 94 0
-94 95 96  0
94 -98 0
30 -98 0
98 -94 -30  0
-98 97 0
-97 98  0
16 -100 0
65 -100 0
100 -16 -65  0
-100 99 0
-99 100  0
101 -104 0
-102 -104 0
104 -101 102  0
-104 103 0
-101 -105 0
102 -105 0
105 101 -102  0
-105 103 0
-103 104 105  0
106 -109 0
-107 -109 0
109 -106 107  0
-109 108 0
-106 -110 0
107 -110 0
110 106 -107  0
-110 108 0
-108 109 110  0
108 -112 0
103 -112 0
112 -108 -103  0
-112 111 0
-111 112  0
-111 -114 0
114 111  0
-114 113 0
-99 -115 0
115 99  0
-115 113 0
-113 114 115  0
4 -117 0
5 -117 0
117 -4 -5  0
-117 116 0
-116 117  0
-11 -119 0
-6 -119 0
119 11 6  0
-119 118 0
-118 119  0
118 -121 0
121 -118  0
-121 120 0
116 -122 0
122 -116  0
-122 120 0
-120 121 122  0
106 -124 0
107 -124 0
124 -106 -107  0
-124 123 0
-123 124  0
101 -126 0
102 -126 0
126 -101 -102  0
-126 125 0
-125 126  0
125 -128 0
108 -128 0
128 -125 -108  0
-128 127 0
-127 128  0
127 -130 0
130 -127  0
-130 129 0
123 -131 0
131 -123  0
-131 129 0
-129 130 131  0
-111 -133 0
-129 -133 0
133 111 129  0
-133 132 0
-120 -134 0
-129 -134 0
134 120 129  0
-134 132 0
-132 133 134  0
-113 -136 0
-97 -136 0
136 113 97  0
-136 135 0
-132 -137 0
137 132  0
-137 135 0
-135 136 137  0
103 -139 0
65 -139 0
139 -103 -65  0
-139 138 0
-138 139  0
138 -141 0
74 -141 0
141 -138 -74  0
-141 140 0
-140 141  0
116 -143 0
103 -143 0
143 -116 -103  0
-143 142 0
-142 143  0
142 -145 0
145 -142  0
-145 144 0
125 -146 0
146 -125  0
-146 144 0
-144 145 146  0
144 -148 0
148 -144  0
-148 147 0
140 -149 0
149 -140  0
-149 147 0
-147 148 149  0
-108 -151 0
-123 -151 0
151 108 123  0
-151 150 0
-147 -152 0
-123 -152 0
152 147 123  0
-152 150 0
-150 151 152  0
150 -154 0
-135 -154 0
154 -150 135  0
-154 153 0
-150 -155 0
135 -155 0
155 150 -135  0
-155 153 0
-153 154 155  0
-91 -157 0
-62 -157 0
157 91 62  0
-157 156 0
-153 -158 0
158 153  0
-158 156 0
-156 157 158  0
-56 -160 0
-120 -160 0
160 56 120  0
-160 159 0
-99 -161 0
-120 -161 0
161 99 120  0
-161 159 0
-159 160 161  0
159 -163 0
-103 -163 0
163 -159 103  0
-163 162 0
-159 -164 0
103 -164 0
164 159 -103  0
-164 162 0
-162 163 164  0
-77 -166 0
-47 -166 0
166 77 47  0
-166 165 0
-71 -167 0
167 71  0
-167 165 0
-165 166 167  0
-165 -169 0
-120 -169 0
169 165 120  0
-169 168 0
-99 -170 0
-120 -170 0
170 99 120  0
-170 168 0
-168 169 170  0
168 -172 0
103 -172 0
172 -168 -103  0
-172 171 0
-168 -173 0
-103 -173 0
173 168 103  0
-173 171 0
-171 172 173  0
-162 -175 0
-62 -175 0
175 162 62  0
-175 174 0
-162 -176 0
-91 -176 0
176 162 91  0
-176 174 0
-171 -177 0
-62 -177 0
177 171 62  0
-177 174 0
-171 -178 0
-91 -178 0
178 171 91  0
-178 174 0
-174 175 176 177 178  0
-171 -180 0
-162 -180 0
180 171 162  0
-180 179 0
-174 -181 0
181 174  0
-181 179 0
-179 180 181  0
179 -183 0
183 -179  0
-183 182 0
156 -184 0
184 -156  0
-184 182 0
-182 183 184  0
99 -186 0
56 -186 0
186 -99 -56  0
-186 185 0
-185 186  0
185 -188 0
188 -185  0
-188 187 0
120 -189 0
189 -120  0
-189 187 0
-187 188 189  0
-103 -191 0
-125 -191 0
191 103 125  0
-191 190 0
-187 -192 0
-125 -192 0
192 187 125  0
-192 190 0
-190 191 192  0
190 -194 0
-108 -194 0
194 -190 108  0
-194 193 0
-190 -195 0
108 -195 0
195 190 -108  0
-195 193 0
-193 194 195  0
147 -197 0
108 -197 0
197 -147 -108  0
-197 196 0
-147 -198 0
-108 -198 0
198 147 108  0
-198 196 0
-196 197 198  0
196 -200 0
-193 -200 0
200 -196 193  0
-200 199 0
-196 -201 0
193 -201 0
201 196 -193  0
-201 199 0
-199 200 201  0
199 -203 0
203 -199  0
-203 202 0
182 -204 0
204 -182  0
-204 202 0
-202 203 204  0
41 -206 0
206 -41  0
-206 205 0
-205 206  0
34 -208 0
208 -34  0
-208 207 0
-207 208  0
27 -210 0
210 -27  0
-210 209 0
-209 210  0
20 -212 0
212 -20  0
-212 211 0
-211 212  0
10 -214 0
214 -10  0
-214 213 0
-213 214  0
5 -216 0
216 -5  0
-216 215 0
-215 216  0
102 -218 0
218 -102  0
-218 217 0
-217 218  0
107 -220 0
220 -107  0
-220 219 0
-219 220  0
40 -222 0
222 -40  0
-222 221 0
-221 222  0
33 -224 0
224 -33  0
-224 223 0
-223 224  0
26 -226 0
226 -26  0
-226 225 0
-225 226  0
19 -228 0
228 -19  0
-228 227 0
-227 228  0
9 -230 0
230 -9  0
-230 229 0
-229 230  0
4 -232 0
232 -4  0
-232 231 0
-231 232  0
101 -234 0
234 -101  0
-234 233 0
-233 234  0
106 -236 0
236 -106  0
-236 235 0
-235 236  0
41 -238 0
238 -41  0
-238 237 0
-237 238  0
34 -240 0
240 -34  0
-240 239 0
-239 240  0
27 -242 0
242 -27  0
-242 241 0
-241 242  0
20 -244 0
244 -20  0
-244 243 0
-243 244  0
10 -246 0
246 -10  0
-246 245 0
-245 246  0
5 -248 0
248 -5  0
-248 247 0
-247 248  0
102 -250 0
250 -102  0
-250 249 0
-249 250  0
107 -252 0
252 -107  0
-252 251 0
-251 252  0
40 -254 0
254 -40  0
-254 253 0
-253 254  0
33 -256 0
256 -33  0
-256 255 0
-255 256  0
26 -258 0
258 -26  0
-258 257 0
-257 258  0
19 -260 0
260 -19  0
-260 259 0
-259 260  0
9 -262 0
262 -9  0
-262 261 0
-261 262  0
4 -264 0
264 -4  0
-264 263 0
-263 264  0
101 -266 0
266 -101  0
-266 265 0
-265 266  0
106 -268 0
268 -106  0
-268 267 0
-267 268  0
202 0
